c smth
s vc 200 143
196
195
192
189
188
187
185
183
182
181
179
178
176
175
174
172
171
170
168
165
163
160
159
157
156
155
154
152
150
149
147
146
142
139
138
137
136
135
134
133
132
130
129
127
125
124
123
122
121
120
119
118
116
115
114
113
112
111
110
108
106
105
104
100
99
98
97
96
95
93
92
90
89
88
87
86
84
83
81
80
79
78
77
76
75
74
73
72
71
68
66
65
64
63
62
61
60
58
57
56
55
53
52
51
50
48
47
46
43
42
41
40
38
37
36
34
33
32
30
29
28
25
24
23
22
21
20
19
18
15
14
13
12
11
10
8
7
6
5
4
3
2
1